Executando Fernandes MODIFICADO
Rodando pra 1h
Optimize a model with 490072 rows, 734022 columns and 18081529 nonzeros
Coefficient statistics:
  Matrix range    [1e+00, 1e+07]
  Objective range [2e-01, 2e-01]
  Bounds range    [1e+00, 1e+07]
  RHS range       [1e+00, 7e+02]
Found heuristic solution: objective 35411.1
Presolve removed 1 rows and 10 columns (presolve time = 5s) ...
Presolve removed 1 rows and 10 columns (presolve time = 15s) ...
Presolve removed 1 rows and 10 columns (presolve time = 22s) ...
Presolve removed 1 rows and 10 columns (presolve time = 28s) ...
Presolve removed 1 rows and 10 columns (presolve time = 30s) ...
Presolve removed 1 rows and 10 columns (presolve time = 35s) ...
Presolve removed 1 rows and 10 columns (presolve time = 41s) ...
Presolve removed 1 rows and 10 columns (presolve time = 46s) ...
Presolve removed 1 rows and 10 columns (presolve time = 51s) ...
Presolve removed 1 rows and 10 columns (presolve time = 55s) ...
Presolve removed 1 rows and 10 columns (presolve time = 60s) ...
Presolve removed 1 rows and 10 columns (presolve time = 66s) ...
Presolve removed 1 rows and 10 columns (presolve time = 70s) ...
Presolve removed 1 rows and 10 columns (presolve time = 75s) ...
Presolve removed 1 rows and 10 columns (presolve time = 80s) ...
Presolve removed 1 rows and 10 columns (presolve time = 85s) ...
Presolve removed 1 rows and 10 columns (presolve time = 90s) ...
Presolve removed 1 rows and 10 columns (presolve time = 95s) ...
Presolve removed 1 rows and 10 columns (presolve time = 106s) ...
Presolve removed 1 rows and 10 columns (presolve time = 125s) ...
Presolve removed 1 rows and 10 columns
Presolve time: 125.33s
Presolved: 490071 rows, 734012 columns, 18081505 nonzeros
Variable types: 489300 continuous, 244712 integer (244706 binary)
Optimize a model with 490071 rows, 734012 columns and 18081505 nonzeros
Coefficient statistics:
  Matrix range    [7e-04, 1e+07]
  Objective range [2e-01, 2e-01]
  Bounds range    [1e+00, 2e+05]
  RHS range       [1e+00, 1e+07]
Presolve removed 0 rows and 0 columns (presolve time = 6s) ...
Presolved: 490071 rows, 734012 columns, 18081505 nonzeros


Root simplex log...

Iteration    Objective       Primal Inf.    Dual Inf.      Time
       0    0.0000000e+00   2.101683e+03   0.000000e+00    142s
    1422    0.0000000e+00   0.000000e+00   0.000000e+00    143s

Root relaxation: objective 0.000000e+00, 1422 iterations, 10.65 seconds
